10
0 74 53 76 97 5 52 100 41 2 
41 0 48 29 90 82 74 52 15 88 
87 46 0 2 39 25 99 78 5 52 
5 87 91 0 99 69 17 82 27 92 
49 6 44 10 0 12 47 49 20 62 
25 85 75 89 78 0 49 96 91 28 
88 37 5 100 100 80 0 93 33 3 
30 29 18 54 78 29 24 0 53 92 
22 98 11 24 92 33 27 56 0 45 
34 19 33 75 1 69 24 28 16 0 
